20
0 1 0.76 0.32
0 2 0.14 0.14
0 3 0.67 0.34
0 4 0.76 0.38
0 5 0.28 0.28
0 6 0.93 0.08
0 7 0.21 0.21
0 8 0.69 0.22
0 9 0.04 0.04
0 10 0.69 0.24
0 11 0.22 0.22
0 12 0.22 0.22
0 13 0.84 0.27
0 14 0.18 0.18
0 15 0.66 0.12
0 16 0.22 0.22
0 17 0.62 0.26
0 18 0.74 0.28
0 19 0.44 0.18
1 2 0.26 0.26
1 3 0.22 0.22
1 4 0.53 0.22
1 5 0.28 0.28
1 6 0.81 0.24
1 7 0.23 0.23
1 8 0.21 0.1
1 9 0.37 0.3
1 10 0.42 0.42
1 11 0.38 0.38
1 12 0.45 0.26
1 13 0.36 0.36
1 14 0.32 0.32
1 15 0.46 0.36
1 16 0.27 0.27
1 17 0.44 0.44
1 18 0.54 0.28
1 19 0.4 0.26
2 3 0.33 0.33
2 4 0.24 0.24
2 5 0.14 0.14
2 6 0.8 0.22
2 7 0.18 0.18
2 8 0.16 0.16
2 9 0.76 0.18
2 10 0.81 0.31
2 11 0.29 0.29
2 12 0.08 0.08
2 13 0.8 0.14
2 14 0.52 0.32
2 15 0.18 0.18
2 16 0.08 0.08
2 17 0.58 0.3
2 18 0.39 0.25
2 19 0.04 0.04
3 4 0.72 0.29
3 5 0.48 0.28
3 6 0.68 0.31
3 7 0.4 0.4
3 8 0.46 0.17
3 9 0.4 0.31
3 10 0.68 0.42
3 11 0.67 0.16
3 12 0.45 0.34
3 13 0.31 0.31
3 14 0.44 0.42
3 15 0.7 0.22
3 16 0.45 0.32
3 17 0.43 0.4
3 18 0.62 0.17
3 19 0.36 0.36
4 5 0.23 0.23
4 6 0.4 0.36
4 7 0.76 0.37
4 8 0.46 0.3
4 9 0.44 0.42
4 10 0.68 0.46
4 11 0.7 0.44
4 12 0.32 0.32
4 13 0.3 0.3
4 14 0.62 0.54
4 15 0.47 0.28
4 16 0.24 0.24
4 17 0.39 0.39
4 18 0.12 0.12
4 19 0.32 0.2
5 6 0.26 0.26
5 7 0.32 0.32
5 8 0.28 0.28
5 9 0.32 0.32
5 10 0.81 0.32
5 11 0.4 0.4
5 12 0.22 0.22
5 13 0.28 0.28
5 14 0.84 0.42
5 15 0.83 0.27
5 16 0.22 0.22
5 17 0.68 0.16
5 18 0.11 0.11
5 19 0.7 0.18
6 7 0.13 0.13
6 8 0.14 0.14
6 9 0.12 0.12
6 10 0.32 0.32
6 11 0.58 0.3
6 12 0.54 0.29
6 13 0.35 0.35
6 14 0.73 0.26
6 15 0.48 0.2
6 16 0.3 0.3
6 17 0.34 0.34
6 18 0.28 0.28
6 19 0.51 0.26
7 8 0.27 0.27
7 9 0.76 0.25
7 10 0.26 0.26
7 11 0.42 0.42
7 12 0.52 0.16
7 13 0.32 0.32
7 14 0.36 0.36
7 15 0.18 0.18
7 16 0.26 0.26
7 17 0.42 0.42
7 18 0.34 0.34
7 19 0.22 0.22
8 9 0.26 0.26
8 10 0.37 0.37
8 11 0.46 0.33
8 12 0.24 0.24
8 13 0.29 0.29
8 14 0.27 0.27
8 15 0.27 0.27
8 16 0.17 0.17
8 17 0.37 0.35
8 18 0.54 0.34
8 19 0.58 0.2
9 10 0.62 0.24
9 11 0.82 0.26
9 12 0.8 0.22
9 13 0.23 0.23
9 14 0.52 0.22
9 15 0.68 0.16
9 16 0.26 0.26
9 17 0.3 0.3
9 18 0.3 0.3
9 19 0.76 0.22
10 11 0.66 0.46
10 12 0.34 0.34
10 13 0.37 0.37
10 14 0.46 0.1
10 15 0.58 0.2
10 16 0.42 0.28
10 17 0.87 0.16
10 18 0.34 0.34
10 19 0.44 0.27
11 12 0.37 0.37
11 13 0.53 0.15
11 14 0.4 0.4
11 15 0.34 0.34
11 16 0.27 0.27
11 17 0.48 0.48
11 18 0.33 0.33
11 19 0.25 0.25
12 13 0.57 0.22
12 14 0.72 0.4
12 15 0.14 0.14
12 16 0.36 0.16
12 17 0.64 0.38
12 18 0.3 0.3
12 19 0.52 0.12
13 14 0.84 0.45
13 15 0.22 0.22
13 16 0.46 0.12
13 17 0.42 0.42
13 18 0.64 0.38
13 19 0.84 0.1
14 15 0.86 0.3
14 16 0.76 0.38
14 17 0.26 0.26
14 18 0.86 0.44
14 19 0.36 0.36
15 16 0.56 0.1
15 17 0.45 0.28
15 18 0.16 0.16
15 19 0.14 0.14
16 17 0.48 0.36
16 18 0.49 0.26
16 19 0.38 0.04
17 18 0.27 0.27
17 19 0.32 0.32
18 19 0.46 0.29
